CPXPARAM_Read_DataCheck                          1
Found incumbent of value 0.000000 after 0.02 sec. (2.56 ticks)
Tried aggregator 1 time.
MIP Presolve eliminated 4 rows and 0 columns.
MIP Presolve modified 1 coefficients.
Reduced MIP has 10027 rows, 100010 columns, and 460030 nonzeros.
Reduced MIP has 100010 binaries, 0 generals, 0 SOSs, and 0 indicators.
Presolve time = 0.28 sec. (171.18 ticks)
Tried aggregator 1 time.
Reduced MIP has 10027 rows, 100010 columns, and 460030 nonzeros.
Reduced MIP has 100010 binaries, 0 generals, 0 SOSs, and 0 indicators.
Presolve time = 0.45 sec. (192.74 ticks)
Probing time = 0.08 sec. (23.26 ticks)
Clique table members: 100000.
MIP emphasis: balance optimality and feasibility.
MIP search method: dynamic search.
Parallel mode: deterministic, using up to 4 threads.
Root relaxation solution time = 1.20 sec. (796.23 ticks)

        Nodes                                         Cuts/
   Node  Left     Objective  IInf  Best Integer    Best Bound    ItCnt     Gap

*     0+    0                            0.0000   619284.0000              --- 
      0     0   336803.8849    14        0.0000   336803.8849       15     --- 
*     0+    0                       117247.0000   336803.8849           187.26%
      0     0        cutoff         117247.0000   117247.0000    36649    0.00%
Elapsed time = 106.36 sec. (62626.66 ticks, tree = 0.01 MB, solutions = 2)

Clique cuts applied:  2573
Cover cuts applied:  1
Implied bound cuts applied:  2
Mixed integer rounding cuts applied:  20
Gomory fractional cuts applied:  10

Root node processing (before b&c):
  Real time             =  106.38 sec. (62633.67 ticks)
Parallel b&c, 4 threads:
  Real time             =    0.00 sec. (0.00 ticks)
  Sync time (average)   =    0.00 sec.
  Wait time (average)   =    0.00 sec.
                          ------------
Total (root+branch&cut) =  106.38 sec. (62633.67 ticks)
